S = 40;
P = 20;
Start = [0, 0, 12, 0, 0, 2, 16, 7, 0, 18, 0, 0, 0, 17, 0, 4, 6, 11, 10, 0, 0, 0, 0, 19, 0, 15, 0, 3, 0, 0, 13, 0, 14, 0, 8, 9, 5, 1, 0, 20];
Goal = [0, 19, 18, 5, 2, 0, 7, 0, 1, 3, 0, 0, 0, 0, 17, 13, 4, 9, 0, 0, 14, 0, 0, 0, 8, 6, 15, 16, 12, 10, 0, 0, 0, 20, 0, 0, 0, 0, 0, 11];
Can_swap = [false, true, false, true, true, true, true, false, false, true, true, true, true, false, false, false, true, false, false, false];
